; benchmark generated from python API
(set-info :status unknown)
(declare-fun x_v0q0.i () Real)
(declare-fun x_v0q0.r () Real)
(declare-fun x_v0q1.i () Real)
(declare-fun x_v0q1.r () Real)
(declare-fun x_v0q2.i () Real)
(declare-fun x_v0q2.r () Real)
(declare-fun x_v0q3.i () Real)
(declare-fun x_v0q3.r () Real)
(declare-fun x_v0q4.i () Real)
(declare-fun x_v0q4.r () Real)
(declare-fun x_v0q5.i () Real)
(declare-fun x_v0q5.r () Real)
(declare-fun x_v0q6.i () Real)
(declare-fun x_v0q6.r () Real)
(declare-fun x_v0q7.i () Real)
(declare-fun x_v0q7.r () Real)
(declare-fun x_v1q0.i () Real)
(declare-fun x_v1q0.r () Real)
(declare-fun x_v1q1.i () Real)
(declare-fun x_v1q1.r () Real)
(declare-fun x_v1q2.i () Real)
(declare-fun x_v1q2.r () Real)
(declare-fun x_v1q3.i () Real)
(declare-fun x_v1q3.r () Real)
(declare-fun x_v1q4.i () Real)
(declare-fun x_v1q4.r () Real)
(declare-fun x_v1q5.i () Real)
(declare-fun x_v1q5.r () Real)
(declare-fun x_v1q6.i () Real)
(declare-fun x_v1q6.r () Real)
(declare-fun x_v1q7.i () Real)
(declare-fun x_v1q7.r () Real)
(declare-fun f (Int) Int)
(declare-fun x_v4q0.i () Real)
(declare-fun x_v4q0.r () Real)
(declare-fun x_v4q1.i () Real)
(declare-fun x_v4q1.r () Real)
(declare-fun x_v4q2.i () Real)
(declare-fun x_v4q2.r () Real)
(declare-fun x_v4q3.i () Real)
(declare-fun x_v4q3.r () Real)
(declare-fun x_v4q4.i () Real)
(declare-fun x_v4q4.r () Real)
(declare-fun x_v4q5.i () Real)
(declare-fun x_v4q5.r () Real)
(declare-fun x_v4q6.i () Real)
(declare-fun x_v4q6.r () Real)
(declare-fun x_v4q7.i () Real)
(declare-fun x_v4q7.r () Real)
(declare-fun x_v5q0.i () Real)
(declare-fun x_v5q0.r () Real)
(declare-fun x_v5q1.i () Real)
(declare-fun x_v5q1.r () Real)
(declare-fun x_v5q2.i () Real)
(declare-fun x_v5q2.r () Real)
(declare-fun x_v5q3.i () Real)
(declare-fun x_v5q3.r () Real)
(declare-fun x_v5q4.i () Real)
(declare-fun x_v5q4.r () Real)
(declare-fun x_v5q5.i () Real)
(declare-fun x_v5q5.r () Real)
(declare-fun x_v5q6.i () Real)
(declare-fun x_v5q6.r () Real)
(declare-fun x_v5q7.i () Real)
(declare-fun x_v5q7.r () Real)
(declare-fun x_v8q0.i () Real)
(declare-fun x_v8q0.r () Real)
(declare-fun x_v8q1.i () Real)
(declare-fun x_v8q1.r () Real)
(declare-fun x_v8q2.i () Real)
(declare-fun x_v8q2.r () Real)
(declare-fun x_v8q3.i () Real)
(declare-fun x_v8q3.r () Real)
(declare-fun x_v8q4.i () Real)
(declare-fun x_v8q4.r () Real)
(declare-fun x_v8q5.i () Real)
(declare-fun x_v8q5.r () Real)
(declare-fun x_v8q6.i () Real)
(declare-fun x_v8q6.r () Real)
(declare-fun x_v8q7.i () Real)
(declare-fun x_v8q7.r () Real)
(declare-fun x_v9q0.i () Real)
(declare-fun x_v9q0.r () Real)
(declare-fun x_v9q1.i () Real)
(declare-fun x_v9q1.r () Real)
(declare-fun x_v9q2.i () Real)
(declare-fun x_v9q2.r () Real)
(declare-fun x_v9q3.i () Real)
(declare-fun x_v9q3.r () Real)
(declare-fun x_v9q4.i () Real)
(declare-fun x_v9q4.r () Real)
(declare-fun x_v9q5.i () Real)
(declare-fun x_v9q5.r () Real)
(declare-fun x_v9q6.i () Real)
(declare-fun x_v9q6.r () Real)
(declare-fun x_v9q7.i () Real)
(declare-fun x_v9q7.r () Real)
(declare-fun Pr_x_v9_7 () Real)
(declare-fun Pr_x_v9_6 () Real)
(declare-fun Pr_x_v9_5 () Real)
(declare-fun Pr_x_v9_4 () Real)
(declare-fun Pr_x_v9_3 () Real)
(declare-fun Pr_x_v9_2 () Real)
(declare-fun Pr_x_v9_1 () Real)
(declare-fun Pr_x_v9_0 () Real)
(declare-fun Pr_x_v9_sum () Real)
(declare-fun hprob_x () Real)
(declare-fun mark () Int)
(declare-fun meas_x () Int)
(declare-fun x_v0c () Int)
(declare-fun grover_partial_ret () Int)
(assert
 (and (= x_v0q0.r 1.0) (= 0.0 x_v0q0.i)))
(assert
 (and (= x_v0q1.r 0.0) (= 0.0 x_v0q1.i)))
(assert
 (and (= x_v0q2.r 0.0) (= 0.0 x_v0q2.i)))
(assert
 (and (= x_v0q3.r 0.0) (= 0.0 x_v0q3.i)))
(assert
 (and (= x_v0q4.r 0.0) (= 0.0 x_v0q4.i)))
(assert
 (and (= x_v0q5.r 0.0) (= 0.0 x_v0q5.i)))
(assert
 (and (= x_v0q6.r 0.0) (= 0.0 x_v0q6.i)))
(assert
 (and (= x_v0q7.r 0.0) (= 0.0 x_v0q7.i)))
(assert
 (let ((?x5877 (+ (* (root-obj (+ (* 8 (^ x 2)) (- 1)) 2) x_v0q0.i) (* (root-obj (+ (* 8 (^ x 2)) (- 1)) 2) x_v0q1.i) (* (root-obj (+ (* 8 (^ x 2)) (- 1)) 2) x_v0q2.i) (* (root-obj (+ (* 8 (^ x 2)) (- 1)) 2) x_v0q3.i) (* (root-obj (+ (* 8 (^ x 2)) (- 1)) 2) x_v0q4.i) (* (root-obj (+ (* 8 (^ x 2)) (- 1)) 2) x_v0q5.i) (* (root-obj (+ (* 8 (^ x 2)) (- 1)) 2) x_v0q6.i) (* (root-obj (+ (* 8 (^ x 2)) (- 1)) 2) x_v0q7.i))))
 (let ((?x6120 (+ (* (root-obj (+ (* 8 (^ x 2)) (- 1)) 2) x_v0q0.r) (* (root-obj (+ (* 8 (^ x 2)) (- 1)) 2) x_v0q1.r) (* (root-obj (+ (* 8 (^ x 2)) (- 1)) 2) x_v0q2.r) (* (root-obj (+ (* 8 (^ x 2)) (- 1)) 2) x_v0q3.r) (* (root-obj (+ (* 8 (^ x 2)) (- 1)) 2) x_v0q4.r) (* (root-obj (+ (* 8 (^ x 2)) (- 1)) 2) x_v0q5.r) (* (root-obj (+ (* 8 (^ x 2)) (- 1)) 2) x_v0q6.r) (* (root-obj (+ (* 8 (^ x 2)) (- 1)) 2) x_v0q7.r))))
 (and (= x_v1q0.r ?x6120) (= x_v1q0.i ?x5877)))))
(assert
 (let ((?x1006 (+ (* (root-obj (+ (* 8 (^ x 2)) (- 1)) 2) x_v0q0.i) (* (root-obj (+ (* 8 (^ x 2)) (- 1)) 1) x_v0q1.i) (* (root-obj (+ (* 8 (^ x 2)) (- 1)) 2) x_v0q2.i) (* (root-obj (+ (* 8 (^ x 2)) (- 1)) 1) x_v0q3.i) (* (root-obj (+ (* 8 (^ x 2)) (- 1)) 2) x_v0q4.i) (* (root-obj (+ (* 8 (^ x 2)) (- 1)) 1) x_v0q5.i) (* (root-obj (+ (* 8 (^ x 2)) (- 1)) 2) x_v0q6.i) (* (root-obj (+ (* 8 (^ x 2)) (- 1)) 1) x_v0q7.i))))
 (let ((?x5456 (+ (* (root-obj (+ (* 8 (^ x 2)) (- 1)) 2) x_v0q0.r) (* (root-obj (+ (* 8 (^ x 2)) (- 1)) 1) x_v0q1.r) (* (root-obj (+ (* 8 (^ x 2)) (- 1)) 2) x_v0q2.r) (* (root-obj (+ (* 8 (^ x 2)) (- 1)) 1) x_v0q3.r) (* (root-obj (+ (* 8 (^ x 2)) (- 1)) 2) x_v0q4.r) (* (root-obj (+ (* 8 (^ x 2)) (- 1)) 1) x_v0q5.r) (* (root-obj (+ (* 8 (^ x 2)) (- 1)) 2) x_v0q6.r) (* (root-obj (+ (* 8 (^ x 2)) (- 1)) 1) x_v0q7.r))))
 (and (= x_v1q1.r ?x5456) (= x_v1q1.i ?x1006)))))
(assert
 (let ((?x1085 (+ (* (root-obj (+ (* 8 (^ x 2)) (- 1)) 2) x_v0q0.i) (* (root-obj (+ (* 8 (^ x 2)) (- 1)) 2) x_v0q1.i) (* (root-obj (+ (* 8 (^ x 2)) (- 1)) 1) x_v0q2.i) (* (root-obj (+ (* 8 (^ x 2)) (- 1)) 1) x_v0q3.i) (* (root-obj (+ (* 8 (^ x 2)) (- 1)) 2) x_v0q4.i) (* (root-obj (+ (* 8 (^ x 2)) (- 1)) 2) x_v0q5.i) (* (root-obj (+ (* 8 (^ x 2)) (- 1)) 1) x_v0q6.i) (* (root-obj (+ (* 8 (^ x 2)) (- 1)) 1) x_v0q7.i))))
 (let ((?x7946 (+ (* (root-obj (+ (* 8 (^ x 2)) (- 1)) 2) x_v0q0.r) (* (root-obj (+ (* 8 (^ x 2)) (- 1)) 2) x_v0q1.r) (* (root-obj (+ (* 8 (^ x 2)) (- 1)) 1) x_v0q2.r) (* (root-obj (+ (* 8 (^ x 2)) (- 1)) 1) x_v0q3.r) (* (root-obj (+ (* 8 (^ x 2)) (- 1)) 2) x_v0q4.r) (* (root-obj (+ (* 8 (^ x 2)) (- 1)) 2) x_v0q5.r) (* (root-obj (+ (* 8 (^ x 2)) (- 1)) 1) x_v0q6.r) (* (root-obj (+ (* 8 (^ x 2)) (- 1)) 1) x_v0q7.r))))
 (and (= x_v1q2.r ?x7946) (= x_v1q2.i ?x1085)))))
(assert
 (let ((?x4881 (+ (* (root-obj (+ (* 8 (^ x 2)) (- 1)) 2) x_v0q0.i) (* (root-obj (+ (* 8 (^ x 2)) (- 1)) 1) x_v0q1.i) (* (root-obj (+ (* 8 (^ x 2)) (- 1)) 1) x_v0q2.i) (* (root-obj (+ (* 8 (^ x 2)) (- 1)) 2) x_v0q3.i) (* (root-obj (+ (* 8 (^ x 2)) (- 1)) 2) x_v0q4.i) (* (root-obj (+ (* 8 (^ x 2)) (- 1)) 1) x_v0q5.i) (* (root-obj (+ (* 8 (^ x 2)) (- 1)) 1) x_v0q6.i) (* (root-obj (+ (* 8 (^ x 2)) (- 1)) 2) x_v0q7.i))))
 (let ((?x8462 (+ (* (root-obj (+ (* 8 (^ x 2)) (- 1)) 2) x_v0q0.r) (* (root-obj (+ (* 8 (^ x 2)) (- 1)) 1) x_v0q1.r) (* (root-obj (+ (* 8 (^ x 2)) (- 1)) 1) x_v0q2.r) (* (root-obj (+ (* 8 (^ x 2)) (- 1)) 2) x_v0q3.r) (* (root-obj (+ (* 8 (^ x 2)) (- 1)) 2) x_v0q4.r) (* (root-obj (+ (* 8 (^ x 2)) (- 1)) 1) x_v0q5.r) (* (root-obj (+ (* 8 (^ x 2)) (- 1)) 1) x_v0q6.r) (* (root-obj (+ (* 8 (^ x 2)) (- 1)) 2) x_v0q7.r))))
 (and (= x_v1q3.r ?x8462) (= x_v1q3.i ?x4881)))))
(assert
 (let ((?x7906 (+ (* (root-obj (+ (* 8 (^ x 2)) (- 1)) 2) x_v0q0.i) (* (root-obj (+ (* 8 (^ x 2)) (- 1)) 2) x_v0q1.i) (* (root-obj (+ (* 8 (^ x 2)) (- 1)) 2) x_v0q2.i) (* (root-obj (+ (* 8 (^ x 2)) (- 1)) 2) x_v0q3.i) (* (root-obj (+ (* 8 (^ x 2)) (- 1)) 1) x_v0q4.i) (* (root-obj (+ (* 8 (^ x 2)) (- 1)) 1) x_v0q5.i) (* (root-obj (+ (* 8 (^ x 2)) (- 1)) 1) x_v0q6.i) (* (root-obj (+ (* 8 (^ x 2)) (- 1)) 1) x_v0q7.i))))
 (let ((?x6660 (+ (* (root-obj (+ (* 8 (^ x 2)) (- 1)) 2) x_v0q0.r) (* (root-obj (+ (* 8 (^ x 2)) (- 1)) 2) x_v0q1.r) (* (root-obj (+ (* 8 (^ x 2)) (- 1)) 2) x_v0q2.r) (* (root-obj (+ (* 8 (^ x 2)) (- 1)) 2) x_v0q3.r) (* (root-obj (+ (* 8 (^ x 2)) (- 1)) 1) x_v0q4.r) (* (root-obj (+ (* 8 (^ x 2)) (- 1)) 1) x_v0q5.r) (* (root-obj (+ (* 8 (^ x 2)) (- 1)) 1) x_v0q6.r) (* (root-obj (+ (* 8 (^ x 2)) (- 1)) 1) x_v0q7.r))))
 (and (= x_v1q4.r ?x6660) (= x_v1q4.i ?x7906)))))
(assert
 (let ((?x8360 (+ (* (root-obj (+ (* 8 (^ x 2)) (- 1)) 2) x_v0q0.i) (* (root-obj (+ (* 8 (^ x 2)) (- 1)) 1) x_v0q1.i) (* (root-obj (+ (* 8 (^ x 2)) (- 1)) 2) x_v0q2.i) (* (root-obj (+ (* 8 (^ x 2)) (- 1)) 1) x_v0q3.i) (* (root-obj (+ (* 8 (^ x 2)) (- 1)) 1) x_v0q4.i) (* (root-obj (+ (* 8 (^ x 2)) (- 1)) 2) x_v0q5.i) (* (root-obj (+ (* 8 (^ x 2)) (- 1)) 1) x_v0q6.i) (* (root-obj (+ (* 8 (^ x 2)) (- 1)) 2) x_v0q7.i))))
 (let ((?x2089 (+ (* (root-obj (+ (* 8 (^ x 2)) (- 1)) 2) x_v0q0.r) (* (root-obj (+ (* 8 (^ x 2)) (- 1)) 1) x_v0q1.r) (* (root-obj (+ (* 8 (^ x 2)) (- 1)) 2) x_v0q2.r) (* (root-obj (+ (* 8 (^ x 2)) (- 1)) 1) x_v0q3.r) (* (root-obj (+ (* 8 (^ x 2)) (- 1)) 1) x_v0q4.r) (* (root-obj (+ (* 8 (^ x 2)) (- 1)) 2) x_v0q5.r) (* (root-obj (+ (* 8 (^ x 2)) (- 1)) 1) x_v0q6.r) (* (root-obj (+ (* 8 (^ x 2)) (- 1)) 2) x_v0q7.r))))
 (and (= x_v1q5.r ?x2089) (= x_v1q5.i ?x8360)))))
(assert
 (let ((?x9071 (+ (* (root-obj (+ (* 8 (^ x 2)) (- 1)) 2) x_v0q0.i) (* (root-obj (+ (* 8 (^ x 2)) (- 1)) 2) x_v0q1.i) (* (root-obj (+ (* 8 (^ x 2)) (- 1)) 1) x_v0q2.i) (* (root-obj (+ (* 8 (^ x 2)) (- 1)) 1) x_v0q3.i) (* (root-obj (+ (* 8 (^ x 2)) (- 1)) 1) x_v0q4.i) (* (root-obj (+ (* 8 (^ x 2)) (- 1)) 1) x_v0q5.i) (* (root-obj (+ (* 8 (^ x 2)) (- 1)) 2) x_v0q6.i) (* (root-obj (+ (* 8 (^ x 2)) (- 1)) 2) x_v0q7.i))))
 (let ((?x7841 (+ (* (root-obj (+ (* 8 (^ x 2)) (- 1)) 2) x_v0q0.r) (* (root-obj (+ (* 8 (^ x 2)) (- 1)) 2) x_v0q1.r) (* (root-obj (+ (* 8 (^ x 2)) (- 1)) 1) x_v0q2.r) (* (root-obj (+ (* 8 (^ x 2)) (- 1)) 1) x_v0q3.r) (* (root-obj (+ (* 8 (^ x 2)) (- 1)) 1) x_v0q4.r) (* (root-obj (+ (* 8 (^ x 2)) (- 1)) 1) x_v0q5.r) (* (root-obj (+ (* 8 (^ x 2)) (- 1)) 2) x_v0q6.r) (* (root-obj (+ (* 8 (^ x 2)) (- 1)) 2) x_v0q7.r))))
 (and (= x_v1q6.r ?x7841) (= x_v1q6.i ?x9071)))))
(assert
 (let ((?x2341 (+ (* (root-obj (+ (* 8 (^ x 2)) (- 1)) 2) x_v0q0.i) (* (root-obj (+ (* 8 (^ x 2)) (- 1)) 1) x_v0q1.i) (* (root-obj (+ (* 8 (^ x 2)) (- 1)) 1) x_v0q2.i) (* (root-obj (+ (* 8 (^ x 2)) (- 1)) 2) x_v0q3.i) (* (root-obj (+ (* 8 (^ x 2)) (- 1)) 1) x_v0q4.i) (* (root-obj (+ (* 8 (^ x 2)) (- 1)) 2) x_v0q5.i) (* (root-obj (+ (* 8 (^ x 2)) (- 1)) 2) x_v0q6.i) (* (root-obj (+ (* 8 (^ x 2)) (- 1)) 1) x_v0q7.i))))
 (let ((?x7706 (+ (* (root-obj (+ (* 8 (^ x 2)) (- 1)) 2) x_v0q0.r) (* (root-obj (+ (* 8 (^ x 2)) (- 1)) 1) x_v0q1.r) (* (root-obj (+ (* 8 (^ x 2)) (- 1)) 1) x_v0q2.r) (* (root-obj (+ (* 8 (^ x 2)) (- 1)) 2) x_v0q3.r) (* (root-obj (+ (* 8 (^ x 2)) (- 1)) 1) x_v0q4.r) (* (root-obj (+ (* 8 (^ x 2)) (- 1)) 2) x_v0q5.r) (* (root-obj (+ (* 8 (^ x 2)) (- 1)) 2) x_v0q6.r) (* (root-obj (+ (* 8 (^ x 2)) (- 1)) 1) x_v0q7.r))))
 (and (= x_v1q7.r ?x7706) (= x_v1q7.i ?x2341)))))
(assert
 (let ((?x7943 (+ 1.0 (* (- 2.0) (ite (= (f 0) 1) 1.0 0.0)))))
 (and (= x_v4q0.r (* x_v1q0.r ?x7943)) (= x_v4q0.i (* x_v1q0.i ?x7943)))))
(assert
 (let ((?x808 (+ 1.0 (* (- 2.0) (ite (= (f 1) 1) 1.0 0.0)))))
 (and (= x_v4q1.r (* x_v1q1.r ?x808)) (= x_v4q1.i (* x_v1q1.i ?x808)))))
(assert
 (let ((?x9067 (+ 1.0 (* (- 2.0) (ite (= (f 2) 1) 1.0 0.0)))))
 (and (= x_v4q2.r (* x_v1q2.r ?x9067)) (= x_v4q2.i (* x_v1q2.i ?x9067)))))
(assert
 (let ((?x8039 (+ 1.0 (* (- 2.0) (ite (= (f 3) 1) 1.0 0.0)))))
 (and (= x_v4q3.r (* x_v1q3.r ?x8039)) (= x_v4q3.i (* x_v1q3.i ?x8039)))))
(assert
 (let ((?x7522 (+ 1.0 (* (- 2.0) (ite (= (f 4) 1) 1.0 0.0)))))
 (and (= x_v4q4.r (* x_v1q4.r ?x7522)) (= x_v4q4.i (* x_v1q4.i ?x7522)))))
(assert
 (let ((?x7669 (+ 1.0 (* (- 2.0) (ite (= (f 5) 1) 1.0 0.0)))))
 (and (= x_v4q5.r (* x_v1q5.r ?x7669)) (= x_v4q5.i (* x_v1q5.i ?x7669)))))
(assert
 (let ((?x736 (+ 1.0 (* (- 2.0) (ite (= (f 6) 1) 1.0 0.0)))))
 (and (= x_v4q6.r (* x_v1q6.r ?x736)) (= x_v4q6.i (* x_v1q6.i ?x736)))))
(assert
 (let ((?x7982 (+ 1.0 (* (- 2.0) (ite (= (f 7) 1) 1.0 0.0)))))
 (and (= x_v4q7.r (* x_v1q7.r ?x7982)) (= x_v4q7.i (* x_v1q7.i ?x7982)))))
(assert
 (let ((?x7470 (+ (* (root-obj (+ (* 8 (^ x 2)) (- 1)) 2) x_v4q0.i) (* (root-obj (+ (* 8 (^ x 2)) (- 1)) 2) x_v4q1.i) (* (root-obj (+ (* 8 (^ x 2)) (- 1)) 2) x_v4q2.i) (* (root-obj (+ (* 8 (^ x 2)) (- 1)) 2) x_v4q3.i) (* (root-obj (+ (* 8 (^ x 2)) (- 1)) 2) x_v4q4.i) (* (root-obj (+ (* 8 (^ x 2)) (- 1)) 2) x_v4q5.i) (* (root-obj (+ (* 8 (^ x 2)) (- 1)) 2) x_v4q6.i) (* (root-obj (+ (* 8 (^ x 2)) (- 1)) 2) x_v4q7.i))))
 (let ((?x5979 (+ (* (root-obj (+ (* 8 (^ x 2)) (- 1)) 2) x_v4q0.r) (* (root-obj (+ (* 8 (^ x 2)) (- 1)) 2) x_v4q1.r) (* (root-obj (+ (* 8 (^ x 2)) (- 1)) 2) x_v4q2.r) (* (root-obj (+ (* 8 (^ x 2)) (- 1)) 2) x_v4q3.r) (* (root-obj (+ (* 8 (^ x 2)) (- 1)) 2) x_v4q4.r) (* (root-obj (+ (* 8 (^ x 2)) (- 1)) 2) x_v4q5.r) (* (root-obj (+ (* 8 (^ x 2)) (- 1)) 2) x_v4q6.r) (* (root-obj (+ (* 8 (^ x 2)) (- 1)) 2) x_v4q7.r))))
 (and (= x_v5q0.r ?x5979) (= x_v5q0.i ?x7470)))))
(assert
 (let ((?x7598 (+ (* (root-obj (+ (* 8 (^ x 2)) (- 1)) 2) x_v4q0.i) (* (root-obj (+ (* 8 (^ x 2)) (- 1)) 1) x_v4q1.i) (* (root-obj (+ (* 8 (^ x 2)) (- 1)) 2) x_v4q2.i) (* (root-obj (+ (* 8 (^ x 2)) (- 1)) 1) x_v4q3.i) (* (root-obj (+ (* 8 (^ x 2)) (- 1)) 2) x_v4q4.i) (* (root-obj (+ (* 8 (^ x 2)) (- 1)) 1) x_v4q5.i) (* (root-obj (+ (* 8 (^ x 2)) (- 1)) 2) x_v4q6.i) (* (root-obj (+ (* 8 (^ x 2)) (- 1)) 1) x_v4q7.i))))
 (let ((?x8031 (+ (* (root-obj (+ (* 8 (^ x 2)) (- 1)) 2) x_v4q0.r) (* (root-obj (+ (* 8 (^ x 2)) (- 1)) 1) x_v4q1.r) (* (root-obj (+ (* 8 (^ x 2)) (- 1)) 2) x_v4q2.r) (* (root-obj (+ (* 8 (^ x 2)) (- 1)) 1) x_v4q3.r) (* (root-obj (+ (* 8 (^ x 2)) (- 1)) 2) x_v4q4.r) (* (root-obj (+ (* 8 (^ x 2)) (- 1)) 1) x_v4q5.r) (* (root-obj (+ (* 8 (^ x 2)) (- 1)) 2) x_v4q6.r) (* (root-obj (+ (* 8 (^ x 2)) (- 1)) 1) x_v4q7.r))))
 (and (= x_v5q1.r ?x8031) (= x_v5q1.i ?x7598)))))
(assert
 (let ((?x7862 (+ (* (root-obj (+ (* 8 (^ x 2)) (- 1)) 2) x_v4q0.i) (* (root-obj (+ (* 8 (^ x 2)) (- 1)) 2) x_v4q1.i) (* (root-obj (+ (* 8 (^ x 2)) (- 1)) 1) x_v4q2.i) (* (root-obj (+ (* 8 (^ x 2)) (- 1)) 1) x_v4q3.i) (* (root-obj (+ (* 8 (^ x 2)) (- 1)) 2) x_v4q4.i) (* (root-obj (+ (* 8 (^ x 2)) (- 1)) 2) x_v4q5.i) (* (root-obj (+ (* 8 (^ x 2)) (- 1)) 1) x_v4q6.i) (* (root-obj (+ (* 8 (^ x 2)) (- 1)) 1) x_v4q7.i))))
 (let ((?x5831 (+ (* (root-obj (+ (* 8 (^ x 2)) (- 1)) 2) x_v4q0.r) (* (root-obj (+ (* 8 (^ x 2)) (- 1)) 2) x_v4q1.r) (* (root-obj (+ (* 8 (^ x 2)) (- 1)) 1) x_v4q2.r) (* (root-obj (+ (* 8 (^ x 2)) (- 1)) 1) x_v4q3.r) (* (root-obj (+ (* 8 (^ x 2)) (- 1)) 2) x_v4q4.r) (* (root-obj (+ (* 8 (^ x 2)) (- 1)) 2) x_v4q5.r) (* (root-obj (+ (* 8 (^ x 2)) (- 1)) 1) x_v4q6.r) (* (root-obj (+ (* 8 (^ x 2)) (- 1)) 1) x_v4q7.r))))
 (and (= x_v5q2.r ?x5831) (= x_v5q2.i ?x7862)))))
(assert
 (let ((?x8324 (+ (* (root-obj (+ (* 8 (^ x 2)) (- 1)) 2) x_v4q0.i) (* (root-obj (+ (* 8 (^ x 2)) (- 1)) 1) x_v4q1.i) (* (root-obj (+ (* 8 (^ x 2)) (- 1)) 1) x_v4q2.i) (* (root-obj (+ (* 8 (^ x 2)) (- 1)) 2) x_v4q3.i) (* (root-obj (+ (* 8 (^ x 2)) (- 1)) 2) x_v4q4.i) (* (root-obj (+ (* 8 (^ x 2)) (- 1)) 1) x_v4q5.i) (* (root-obj (+ (* 8 (^ x 2)) (- 1)) 1) x_v4q6.i) (* (root-obj (+ (* 8 (^ x 2)) (- 1)) 2) x_v4q7.i))))
 (let ((?x8115 (+ (* (root-obj (+ (* 8 (^ x 2)) (- 1)) 2) x_v4q0.r) (* (root-obj (+ (* 8 (^ x 2)) (- 1)) 1) x_v4q1.r) (* (root-obj (+ (* 8 (^ x 2)) (- 1)) 1) x_v4q2.r) (* (root-obj (+ (* 8 (^ x 2)) (- 1)) 2) x_v4q3.r) (* (root-obj (+ (* 8 (^ x 2)) (- 1)) 2) x_v4q4.r) (* (root-obj (+ (* 8 (^ x 2)) (- 1)) 1) x_v4q5.r) (* (root-obj (+ (* 8 (^ x 2)) (- 1)) 1) x_v4q6.r) (* (root-obj (+ (* 8 (^ x 2)) (- 1)) 2) x_v4q7.r))))
 (and (= x_v5q3.r ?x8115) (= x_v5q3.i ?x8324)))))
(assert
 (let ((?x8159 (+ (* (root-obj (+ (* 8 (^ x 2)) (- 1)) 2) x_v4q0.i) (* (root-obj (+ (* 8 (^ x 2)) (- 1)) 2) x_v4q1.i) (* (root-obj (+ (* 8 (^ x 2)) (- 1)) 2) x_v4q2.i) (* (root-obj (+ (* 8 (^ x 2)) (- 1)) 2) x_v4q3.i) (* (root-obj (+ (* 8 (^ x 2)) (- 1)) 1) x_v4q4.i) (* (root-obj (+ (* 8 (^ x 2)) (- 1)) 1) x_v4q5.i) (* (root-obj (+ (* 8 (^ x 2)) (- 1)) 1) x_v4q6.i) (* (root-obj (+ (* 8 (^ x 2)) (- 1)) 1) x_v4q7.i))))
 (let ((?x7896 (+ (* (root-obj (+ (* 8 (^ x 2)) (- 1)) 2) x_v4q0.r) (* (root-obj (+ (* 8 (^ x 2)) (- 1)) 2) x_v4q1.r) (* (root-obj (+ (* 8 (^ x 2)) (- 1)) 2) x_v4q2.r) (* (root-obj (+ (* 8 (^ x 2)) (- 1)) 2) x_v4q3.r) (* (root-obj (+ (* 8 (^ x 2)) (- 1)) 1) x_v4q4.r) (* (root-obj (+ (* 8 (^ x 2)) (- 1)) 1) x_v4q5.r) (* (root-obj (+ (* 8 (^ x 2)) (- 1)) 1) x_v4q6.r) (* (root-obj (+ (* 8 (^ x 2)) (- 1)) 1) x_v4q7.r))))
 (and (= x_v5q4.r ?x7896) (= x_v5q4.i ?x8159)))))
(assert
 (let ((?x5151 (+ (* (root-obj (+ (* 8 (^ x 2)) (- 1)) 2) x_v4q0.i) (* (root-obj (+ (* 8 (^ x 2)) (- 1)) 1) x_v4q1.i) (* (root-obj (+ (* 8 (^ x 2)) (- 1)) 2) x_v4q2.i) (* (root-obj (+ (* 8 (^ x 2)) (- 1)) 1) x_v4q3.i) (* (root-obj (+ (* 8 (^ x 2)) (- 1)) 1) x_v4q4.i) (* (root-obj (+ (* 8 (^ x 2)) (- 1)) 2) x_v4q5.i) (* (root-obj (+ (* 8 (^ x 2)) (- 1)) 1) x_v4q6.i) (* (root-obj (+ (* 8 (^ x 2)) (- 1)) 2) x_v4q7.i))))
 (let ((?x4874 (+ (* (root-obj (+ (* 8 (^ x 2)) (- 1)) 2) x_v4q0.r) (* (root-obj (+ (* 8 (^ x 2)) (- 1)) 1) x_v4q1.r) (* (root-obj (+ (* 8 (^ x 2)) (- 1)) 2) x_v4q2.r) (* (root-obj (+ (* 8 (^ x 2)) (- 1)) 1) x_v4q3.r) (* (root-obj (+ (* 8 (^ x 2)) (- 1)) 1) x_v4q4.r) (* (root-obj (+ (* 8 (^ x 2)) (- 1)) 2) x_v4q5.r) (* (root-obj (+ (* 8 (^ x 2)) (- 1)) 1) x_v4q6.r) (* (root-obj (+ (* 8 (^ x 2)) (- 1)) 2) x_v4q7.r))))
 (and (= x_v5q5.r ?x4874) (= x_v5q5.i ?x5151)))))
(assert
 (let ((?x8095 (+ (* (root-obj (+ (* 8 (^ x 2)) (- 1)) 2) x_v4q0.i) (* (root-obj (+ (* 8 (^ x 2)) (- 1)) 2) x_v4q1.i) (* (root-obj (+ (* 8 (^ x 2)) (- 1)) 1) x_v4q2.i) (* (root-obj (+ (* 8 (^ x 2)) (- 1)) 1) x_v4q3.i) (* (root-obj (+ (* 8 (^ x 2)) (- 1)) 1) x_v4q4.i) (* (root-obj (+ (* 8 (^ x 2)) (- 1)) 1) x_v4q5.i) (* (root-obj (+ (* 8 (^ x 2)) (- 1)) 2) x_v4q6.i) (* (root-obj (+ (* 8 (^ x 2)) (- 1)) 2) x_v4q7.i))))
 (let ((?x7966 (+ (* (root-obj (+ (* 8 (^ x 2)) (- 1)) 2) x_v4q0.r) (* (root-obj (+ (* 8 (^ x 2)) (- 1)) 2) x_v4q1.r) (* (root-obj (+ (* 8 (^ x 2)) (- 1)) 1) x_v4q2.r) (* (root-obj (+ (* 8 (^ x 2)) (- 1)) 1) x_v4q3.r) (* (root-obj (+ (* 8 (^ x 2)) (- 1)) 1) x_v4q4.r) (* (root-obj (+ (* 8 (^ x 2)) (- 1)) 1) x_v4q5.r) (* (root-obj (+ (* 8 (^ x 2)) (- 1)) 2) x_v4q6.r) (* (root-obj (+ (* 8 (^ x 2)) (- 1)) 2) x_v4q7.r))))
 (and (= x_v5q6.r ?x7966) (= x_v5q6.i ?x8095)))))
(assert
 (let ((?x9063 (+ (* (root-obj (+ (* 8 (^ x 2)) (- 1)) 2) x_v4q0.i) (* (root-obj (+ (* 8 (^ x 2)) (- 1)) 1) x_v4q1.i) (* (root-obj (+ (* 8 (^ x 2)) (- 1)) 1) x_v4q2.i) (* (root-obj (+ (* 8 (^ x 2)) (- 1)) 2) x_v4q3.i) (* (root-obj (+ (* 8 (^ x 2)) (- 1)) 1) x_v4q4.i) (* (root-obj (+ (* 8 (^ x 2)) (- 1)) 2) x_v4q5.i) (* (root-obj (+ (* 8 (^ x 2)) (- 1)) 2) x_v4q6.i) (* (root-obj (+ (* 8 (^ x 2)) (- 1)) 1) x_v4q7.i))))
 (let ((?x8986 (+ (* (root-obj (+ (* 8 (^ x 2)) (- 1)) 2) x_v4q0.r) (* (root-obj (+ (* 8 (^ x 2)) (- 1)) 1) x_v4q1.r) (* (root-obj (+ (* 8 (^ x 2)) (- 1)) 1) x_v4q2.r) (* (root-obj (+ (* 8 (^ x 2)) (- 1)) 2) x_v4q3.r) (* (root-obj (+ (* 8 (^ x 2)) (- 1)) 1) x_v4q4.r) (* (root-obj (+ (* 8 (^ x 2)) (- 1)) 2) x_v4q5.r) (* (root-obj (+ (* 8 (^ x 2)) (- 1)) 2) x_v4q6.r) (* (root-obj (+ (* 8 (^ x 2)) (- 1)) 1) x_v4q7.r))))
 (and (= x_v5q7.r ?x8986) (= x_v5q7.i ?x9063)))))
(assert
 (and (= x_v8q0.r x_v5q0.r) (= x_v8q0.i x_v5q0.i)))
(assert
 (and (= x_v8q1.r (* (- 1.0) x_v5q1.r)) (= x_v8q1.i (* (- 1.0) x_v5q1.i))))
(assert
 (and (= x_v8q2.r (* (- 1.0) x_v5q2.r)) (= x_v8q2.i (* (- 1.0) x_v5q2.i))))
(assert
 (and (= x_v8q3.r (* (- 1.0) x_v5q3.r)) (= x_v8q3.i (* (- 1.0) x_v5q3.i))))
(assert
 (and (= x_v8q4.r (* (- 1.0) x_v5q4.r)) (= x_v8q4.i (* (- 1.0) x_v5q4.i))))
(assert
 (and (= x_v8q5.r (* (- 1.0) x_v5q5.r)) (= x_v8q5.i (* (- 1.0) x_v5q5.i))))
(assert
 (and (= x_v8q6.r (* (- 1.0) x_v5q6.r)) (= x_v8q6.i (* (- 1.0) x_v5q6.i))))
(assert
 (and (= x_v8q7.r (* (- 1.0) x_v5q7.r)) (= x_v8q7.i (* (- 1.0) x_v5q7.i))))
(assert
 (let ((?x11578 (+ (* (root-obj (+ (* 8 (^ x 2)) (- 1)) 2) x_v8q0.i) (* (root-obj (+ (* 8 (^ x 2)) (- 1)) 2) x_v8q1.i) (* (root-obj (+ (* 8 (^ x 2)) (- 1)) 2) x_v8q2.i) (* (root-obj (+ (* 8 (^ x 2)) (- 1)) 2) x_v8q3.i) (* (root-obj (+ (* 8 (^ x 2)) (- 1)) 2) x_v8q4.i) (* (root-obj (+ (* 8 (^ x 2)) (- 1)) 2) x_v8q5.i) (* (root-obj (+ (* 8 (^ x 2)) (- 1)) 2) x_v8q6.i) (* (root-obj (+ (* 8 (^ x 2)) (- 1)) 2) x_v8q7.i))))
 (let ((?x836 (+ (* (root-obj (+ (* 8 (^ x 2)) (- 1)) 2) x_v8q0.r) (* (root-obj (+ (* 8 (^ x 2)) (- 1)) 2) x_v8q1.r) (* (root-obj (+ (* 8 (^ x 2)) (- 1)) 2) x_v8q2.r) (* (root-obj (+ (* 8 (^ x 2)) (- 1)) 2) x_v8q3.r) (* (root-obj (+ (* 8 (^ x 2)) (- 1)) 2) x_v8q4.r) (* (root-obj (+ (* 8 (^ x 2)) (- 1)) 2) x_v8q5.r) (* (root-obj (+ (* 8 (^ x 2)) (- 1)) 2) x_v8q6.r) (* (root-obj (+ (* 8 (^ x 2)) (- 1)) 2) x_v8q7.r))))
 (and (= x_v9q0.r ?x836) (= x_v9q0.i ?x11578)))))
(assert
 (let ((?x7569 (+ (* (root-obj (+ (* 8 (^ x 2)) (- 1)) 2) x_v8q0.i) (* (root-obj (+ (* 8 (^ x 2)) (- 1)) 1) x_v8q1.i) (* (root-obj (+ (* 8 (^ x 2)) (- 1)) 2) x_v8q2.i) (* (root-obj (+ (* 8 (^ x 2)) (- 1)) 1) x_v8q3.i) (* (root-obj (+ (* 8 (^ x 2)) (- 1)) 2) x_v8q4.i) (* (root-obj (+ (* 8 (^ x 2)) (- 1)) 1) x_v8q5.i) (* (root-obj (+ (* 8 (^ x 2)) (- 1)) 2) x_v8q6.i) (* (root-obj (+ (* 8 (^ x 2)) (- 1)) 1) x_v8q7.i))))
 (let ((?x113 (+ (* (root-obj (+ (* 8 (^ x 2)) (- 1)) 2) x_v8q0.r) (* (root-obj (+ (* 8 (^ x 2)) (- 1)) 1) x_v8q1.r) (* (root-obj (+ (* 8 (^ x 2)) (- 1)) 2) x_v8q2.r) (* (root-obj (+ (* 8 (^ x 2)) (- 1)) 1) x_v8q3.r) (* (root-obj (+ (* 8 (^ x 2)) (- 1)) 2) x_v8q4.r) (* (root-obj (+ (* 8 (^ x 2)) (- 1)) 1) x_v8q5.r) (* (root-obj (+ (* 8 (^ x 2)) (- 1)) 2) x_v8q6.r) (* (root-obj (+ (* 8 (^ x 2)) (- 1)) 1) x_v8q7.r))))
 (and (= x_v9q1.r ?x113) (= x_v9q1.i ?x7569)))))
(assert
 (let ((?x997 (+ (* (root-obj (+ (* 8 (^ x 2)) (- 1)) 2) x_v8q0.i) (* (root-obj (+ (* 8 (^ x 2)) (- 1)) 2) x_v8q1.i) (* (root-obj (+ (* 8 (^ x 2)) (- 1)) 1) x_v8q2.i) (* (root-obj (+ (* 8 (^ x 2)) (- 1)) 1) x_v8q3.i) (* (root-obj (+ (* 8 (^ x 2)) (- 1)) 2) x_v8q4.i) (* (root-obj (+ (* 8 (^ x 2)) (- 1)) 2) x_v8q5.i) (* (root-obj (+ (* 8 (^ x 2)) (- 1)) 1) x_v8q6.i) (* (root-obj (+ (* 8 (^ x 2)) (- 1)) 1) x_v8q7.i))))
 (let ((?x882 (+ (* (root-obj (+ (* 8 (^ x 2)) (- 1)) 2) x_v8q0.r) (* (root-obj (+ (* 8 (^ x 2)) (- 1)) 2) x_v8q1.r) (* (root-obj (+ (* 8 (^ x 2)) (- 1)) 1) x_v8q2.r) (* (root-obj (+ (* 8 (^ x 2)) (- 1)) 1) x_v8q3.r) (* (root-obj (+ (* 8 (^ x 2)) (- 1)) 2) x_v8q4.r) (* (root-obj (+ (* 8 (^ x 2)) (- 1)) 2) x_v8q5.r) (* (root-obj (+ (* 8 (^ x 2)) (- 1)) 1) x_v8q6.r) (* (root-obj (+ (* 8 (^ x 2)) (- 1)) 1) x_v8q7.r))))
 (and (= x_v9q2.r ?x882) (= x_v9q2.i ?x997)))))
(assert
 (let ((?x8636 (+ (* (root-obj (+ (* 8 (^ x 2)) (- 1)) 2) x_v8q0.i) (* (root-obj (+ (* 8 (^ x 2)) (- 1)) 1) x_v8q1.i) (* (root-obj (+ (* 8 (^ x 2)) (- 1)) 1) x_v8q2.i) (* (root-obj (+ (* 8 (^ x 2)) (- 1)) 2) x_v8q3.i) (* (root-obj (+ (* 8 (^ x 2)) (- 1)) 2) x_v8q4.i) (* (root-obj (+ (* 8 (^ x 2)) (- 1)) 1) x_v8q5.i) (* (root-obj (+ (* 8 (^ x 2)) (- 1)) 1) x_v8q6.i) (* (root-obj (+ (* 8 (^ x 2)) (- 1)) 2) x_v8q7.i))))
 (let ((?x309 (+ (* (root-obj (+ (* 8 (^ x 2)) (- 1)) 2) x_v8q0.r) (* (root-obj (+ (* 8 (^ x 2)) (- 1)) 1) x_v8q1.r) (* (root-obj (+ (* 8 (^ x 2)) (- 1)) 1) x_v8q2.r) (* (root-obj (+ (* 8 (^ x 2)) (- 1)) 2) x_v8q3.r) (* (root-obj (+ (* 8 (^ x 2)) (- 1)) 2) x_v8q4.r) (* (root-obj (+ (* 8 (^ x 2)) (- 1)) 1) x_v8q5.r) (* (root-obj (+ (* 8 (^ x 2)) (- 1)) 1) x_v8q6.r) (* (root-obj (+ (* 8 (^ x 2)) (- 1)) 2) x_v8q7.r))))
 (and (= x_v9q3.r ?x309) (= x_v9q3.i ?x8636)))))
(assert
 (let ((?x6051 (+ (* (root-obj (+ (* 8 (^ x 2)) (- 1)) 2) x_v8q0.i) (* (root-obj (+ (* 8 (^ x 2)) (- 1)) 2) x_v8q1.i) (* (root-obj (+ (* 8 (^ x 2)) (- 1)) 2) x_v8q2.i) (* (root-obj (+ (* 8 (^ x 2)) (- 1)) 2) x_v8q3.i) (* (root-obj (+ (* 8 (^ x 2)) (- 1)) 1) x_v8q4.i) (* (root-obj (+ (* 8 (^ x 2)) (- 1)) 1) x_v8q5.i) (* (root-obj (+ (* 8 (^ x 2)) (- 1)) 1) x_v8q6.i) (* (root-obj (+ (* 8 (^ x 2)) (- 1)) 1) x_v8q7.i))))
 (let ((?x703 (+ (* (root-obj (+ (* 8 (^ x 2)) (- 1)) 2) x_v8q0.r) (* (root-obj (+ (* 8 (^ x 2)) (- 1)) 2) x_v8q1.r) (* (root-obj (+ (* 8 (^ x 2)) (- 1)) 2) x_v8q2.r) (* (root-obj (+ (* 8 (^ x 2)) (- 1)) 2) x_v8q3.r) (* (root-obj (+ (* 8 (^ x 2)) (- 1)) 1) x_v8q4.r) (* (root-obj (+ (* 8 (^ x 2)) (- 1)) 1) x_v8q5.r) (* (root-obj (+ (* 8 (^ x 2)) (- 1)) 1) x_v8q6.r) (* (root-obj (+ (* 8 (^ x 2)) (- 1)) 1) x_v8q7.r))))
 (and (= x_v9q4.r ?x703) (= x_v9q4.i ?x6051)))))
(assert
 (let ((?x278 (+ (* (root-obj (+ (* 8 (^ x 2)) (- 1)) 2) x_v8q0.i) (* (root-obj (+ (* 8 (^ x 2)) (- 1)) 1) x_v8q1.i) (* (root-obj (+ (* 8 (^ x 2)) (- 1)) 2) x_v8q2.i) (* (root-obj (+ (* 8 (^ x 2)) (- 1)) 1) x_v8q3.i) (* (root-obj (+ (* 8 (^ x 2)) (- 1)) 1) x_v8q4.i) (* (root-obj (+ (* 8 (^ x 2)) (- 1)) 2) x_v8q5.i) (* (root-obj (+ (* 8 (^ x 2)) (- 1)) 1) x_v8q6.i) (* (root-obj (+ (* 8 (^ x 2)) (- 1)) 2) x_v8q7.i))))
 (let ((?x6589 (+ (* (root-obj (+ (* 8 (^ x 2)) (- 1)) 2) x_v8q0.r) (* (root-obj (+ (* 8 (^ x 2)) (- 1)) 1) x_v8q1.r) (* (root-obj (+ (* 8 (^ x 2)) (- 1)) 2) x_v8q2.r) (* (root-obj (+ (* 8 (^ x 2)) (- 1)) 1) x_v8q3.r) (* (root-obj (+ (* 8 (^ x 2)) (- 1)) 1) x_v8q4.r) (* (root-obj (+ (* 8 (^ x 2)) (- 1)) 2) x_v8q5.r) (* (root-obj (+ (* 8 (^ x 2)) (- 1)) 1) x_v8q6.r) (* (root-obj (+ (* 8 (^ x 2)) (- 1)) 2) x_v8q7.r))))
 (and (= x_v9q5.r ?x6589) (= x_v9q5.i ?x278)))))
(assert
 (let ((?x6131 (+ (* (root-obj (+ (* 8 (^ x 2)) (- 1)) 2) x_v8q0.i) (* (root-obj (+ (* 8 (^ x 2)) (- 1)) 2) x_v8q1.i) (* (root-obj (+ (* 8 (^ x 2)) (- 1)) 1) x_v8q2.i) (* (root-obj (+ (* 8 (^ x 2)) (- 1)) 1) x_v8q3.i) (* (root-obj (+ (* 8 (^ x 2)) (- 1)) 1) x_v8q4.i) (* (root-obj (+ (* 8 (^ x 2)) (- 1)) 1) x_v8q5.i) (* (root-obj (+ (* 8 (^ x 2)) (- 1)) 2) x_v8q6.i) (* (root-obj (+ (* 8 (^ x 2)) (- 1)) 2) x_v8q7.i))))
 (let ((?x100 (+ (* (root-obj (+ (* 8 (^ x 2)) (- 1)) 2) x_v8q0.r) (* (root-obj (+ (* 8 (^ x 2)) (- 1)) 2) x_v8q1.r) (* (root-obj (+ (* 8 (^ x 2)) (- 1)) 1) x_v8q2.r) (* (root-obj (+ (* 8 (^ x 2)) (- 1)) 1) x_v8q3.r) (* (root-obj (+ (* 8 (^ x 2)) (- 1)) 1) x_v8q4.r) (* (root-obj (+ (* 8 (^ x 2)) (- 1)) 1) x_v8q5.r) (* (root-obj (+ (* 8 (^ x 2)) (- 1)) 2) x_v8q6.r) (* (root-obj (+ (* 8 (^ x 2)) (- 1)) 2) x_v8q7.r))))
 (and (= x_v9q6.r ?x100) (= x_v9q6.i ?x6131)))))
(assert
 (let ((?x1625 (+ (* (root-obj (+ (* 8 (^ x 2)) (- 1)) 2) x_v8q0.i) (* (root-obj (+ (* 8 (^ x 2)) (- 1)) 1) x_v8q1.i) (* (root-obj (+ (* 8 (^ x 2)) (- 1)) 1) x_v8q2.i) (* (root-obj (+ (* 8 (^ x 2)) (- 1)) 2) x_v8q3.i) (* (root-obj (+ (* 8 (^ x 2)) (- 1)) 1) x_v8q4.i) (* (root-obj (+ (* 8 (^ x 2)) (- 1)) 2) x_v8q5.i) (* (root-obj (+ (* 8 (^ x 2)) (- 1)) 2) x_v8q6.i) (* (root-obj (+ (* 8 (^ x 2)) (- 1)) 1) x_v8q7.i))))
 (let ((?x496 (+ (* (root-obj (+ (* 8 (^ x 2)) (- 1)) 2) x_v8q0.r) (* (root-obj (+ (* 8 (^ x 2)) (- 1)) 1) x_v8q1.r) (* (root-obj (+ (* 8 (^ x 2)) (- 1)) 1) x_v8q2.r) (* (root-obj (+ (* 8 (^ x 2)) (- 1)) 2) x_v8q3.r) (* (root-obj (+ (* 8 (^ x 2)) (- 1)) 1) x_v8q4.r) (* (root-obj (+ (* 8 (^ x 2)) (- 1)) 2) x_v8q5.r) (* (root-obj (+ (* 8 (^ x 2)) (- 1)) 2) x_v8q6.r) (* (root-obj (+ (* 8 (^ x 2)) (- 1)) 1) x_v8q7.r))))
 (and (= x_v9q7.r ?x496) (= x_v9q7.i ?x1625)))))
(assert
 (and (and (<= Pr_x_v9_0 1.0) (>= Pr_x_v9_0 0.0)) (and (<= Pr_x_v9_1 1.0) (>= Pr_x_v9_1 0.0)) (and (<= Pr_x_v9_2 1.0) (>= Pr_x_v9_2 0.0)) (and (<= Pr_x_v9_3 1.0) (>= Pr_x_v9_3 0.0)) (and (<= Pr_x_v9_4 1.0) (>= Pr_x_v9_4 0.0)) (and (<= Pr_x_v9_5 1.0) (>= Pr_x_v9_5 0.0)) (and (<= Pr_x_v9_6 1.0) (>= Pr_x_v9_6 0.0)) (and (<= Pr_x_v9_7 1.0) (>= Pr_x_v9_7 0.0))))
(assert
 (let ((?x4425 (+ Pr_x_v9_0 Pr_x_v9_1 Pr_x_v9_2 Pr_x_v9_3 Pr_x_v9_4 Pr_x_v9_5 Pr_x_v9_6 Pr_x_v9_7)))
 (= Pr_x_v9_sum ?x4425)))
(assert
 (= Pr_x_v9_sum 1.0))
(assert
 (= Pr_x_v9_0 (+ (+ (^ x_v9q0.r 2.0) (^ x_v9q0.i 2.0)))))
(assert
 (= Pr_x_v9_1 (+ (+ (^ x_v9q1.r 2.0) (^ x_v9q1.i 2.0)))))
(assert
 (= Pr_x_v9_2 (+ (+ (^ x_v9q2.r 2.0) (^ x_v9q2.i 2.0)))))
(assert
 (= Pr_x_v9_3 (+ (+ (^ x_v9q3.r 2.0) (^ x_v9q3.i 2.0)))))
(assert
 (= Pr_x_v9_4 (+ (+ (^ x_v9q4.r 2.0) (^ x_v9q4.i 2.0)))))
(assert
 (= Pr_x_v9_5 (+ (+ (^ x_v9q5.r 2.0) (^ x_v9q5.i 2.0)))))
(assert
 (= Pr_x_v9_6 (+ (+ (^ x_v9q6.r 2.0) (^ x_v9q6.i 2.0)))))
(assert
 (= Pr_x_v9_7 (+ (+ (^ x_v9q7.r 2.0) (^ x_v9q7.i 2.0)))))
(assert
 (and (>= hprob_x Pr_x_v9_0) (>= hprob_x Pr_x_v9_1) (>= hprob_x Pr_x_v9_2) (>= hprob_x Pr_x_v9_3) (>= hprob_x Pr_x_v9_4) (>= hprob_x Pr_x_v9_5) (>= hprob_x Pr_x_v9_6) (>= hprob_x Pr_x_v9_7)))
(assert
 (and (=> (= hprob_x Pr_x_v9_0) (= mark 0)) (=> (= mark 0) (= hprob_x Pr_x_v9_0))))
(assert
 (and (=> (= hprob_x Pr_x_v9_1) (= mark 1)) (=> (= mark 1) (= hprob_x Pr_x_v9_1))))
(assert
 (and (=> (= hprob_x Pr_x_v9_2) (= mark 2)) (=> (= mark 2) (= hprob_x Pr_x_v9_2))))
(assert
 (and (=> (= hprob_x Pr_x_v9_3) (= mark 3)) (=> (= mark 3) (= hprob_x Pr_x_v9_3))))
(assert
 (and (=> (= hprob_x Pr_x_v9_4) (= mark 4)) (=> (= mark 4) (= hprob_x Pr_x_v9_4))))
(assert
 (and (=> (= hprob_x Pr_x_v9_5) (= mark 5)) (=> (= mark 5) (= hprob_x Pr_x_v9_5))))
(assert
 (and (=> (= hprob_x Pr_x_v9_6) (= mark 6)) (=> (= mark 6) (= hprob_x Pr_x_v9_6))))
(assert
 (and (=> (= hprob_x Pr_x_v9_7) (= mark 7)) (=> (= mark 7) (= hprob_x Pr_x_v9_7))))
(assert
 (= meas_x mark))
(assert
 (=> (= Pr_x_v9_0 0.0) (and (distinct meas_x 0) true)))
(assert
 (=> (= Pr_x_v9_1 0.0) (and (distinct meas_x 1) true)))
(assert
 (=> (= Pr_x_v9_2 0.0) (and (distinct meas_x 2) true)))
(assert
 (=> (= Pr_x_v9_3 0.0) (and (distinct meas_x 3) true)))
(assert
 (=> (= Pr_x_v9_4 0.0) (and (distinct meas_x 4) true)))
(assert
 (=> (= Pr_x_v9_5 0.0) (and (distinct meas_x 5) true)))
(assert
 (=> (= Pr_x_v9_6 0.0) (and (distinct meas_x 6) true)))
(assert
 (=> (= Pr_x_v9_7 0.0) (and (distinct meas_x 7) true)))
(assert
 (= x_v0c meas_x))
(assert
 (= grover_partial_ret x_v0c))
(check-sat)
